p wcnf 155 184 185 
1 -131 87 0 
1 91 140 0 
1 140 80 0 
1 16 -20 0 
1 -9 -139 0 
1 13 45 0 
1 150 -82 0 
1 -31 -86 0 
1 27 -124 0 
1 -80 27 0 
1 36 -18 0 
1 38 -5 0 
1 -60 18 0 
1 -77 -93 0 
1 -55 -149 0 
1 -63 4 0 
1 -3 -120 0 
1 -148 -53 0 
1 15 -52 0 
1 -59 18 0 
1 92 11 0 
1 62 -60 0 
1 155 33 0 
1 96 -103 0 
1 -78 -128 0 
1 90 54 0 
1 16 -30 0 
1 53 147 0 
1 -110 -5 0 
1 34 132 0 
1 -106 25 0 
1 43 -87 0 
1 92 57 0 
1 -142 -4 0 
1 -40 22 0 
1 93 -19 0 
1 27 -65 0 
1 141 137 0 
1 -47 92 0 
1 -73 -10 0 
1 -127 37 0 
1 -149 -76 0 
1 106 -27 0 
1 123 -133 0 
1 89 147 0 
1 69 121 0 
1 109 78 0 
1 120 -18 0 
1 147 2 0 
1 47 43 0 
1 -77 21 0 
1 10 -119 0 
1 -147 128 0 
1 -19 -66 0 
1 -91 121 0 
1 113 -21 0 
1 -3 -66 0 
1 -16 -23 0 
1 -64 97 0 
1 121 14 0 
1 -9 -71 0 
1 6 -84 0 
1 113 -124 0 
1 71 -129 0 
1 -35 78 0 
1 -82 120 0 
1 -124 -26 0 
1 153 129 0 
1 48 113 0 
1 62 144 0 
1 -64 -3 0 
1 138 -131 0 
1 -71 -135 0 
1 -98 -46 0 
1 -107 75 0 
1 73 -119 0 
1 -78 125 0 
1 -129 9 0 
1 143 30 0 
1 -93 41 0 
1 86 -112 0 
1 -85 50 0 
1 -148 98 0 
1 30 49 0 
1 135 -72 0 
1 -25 -14 0 
1 59 -82 0 
1 -145 -11 0 
1 -6 -66 0 
1 146 95 0 
1 -84 -58 0 
1 106 78 0 
1 -114 100 0 
1 -138 -143 0 
1 82 -12 0 
1 -69 -22 0 
1 130 -82 0 
1 47 -49 0 
1 118 51 0 
1 -155 -24 0 
1 45 120 0 
1 46 21 0 
1 14 84 0 
1 -111 97 0 
1 92 -81 0 
1 -139 -119 0 
1 109 -152 0 
1 -94 151 0 
1 -94 82 0 
1 -90 113 0 
1 -32 -83 0 
1 -22 -120 0 
1 91 -24 0 
1 -58 131 0 
1 -91 -28 0 
1 -132 17 0 
1 -100 43 0 
1 83 -116 0 
1 -33 -61 0 
1 -29 -154 0 
1 -40 152 0 
1 -99 -121 0 
1 -145 115 0 
1 -23 138 0 
1 150 -127 0 
1 36 152 0 
1 -122 11 0 
1 54 -36 0 
1 97 -9 0 
1 -91 -24 0 
1 -16 -18 0 
1 -143 86 0 
1 -111 -144 0 
1 -38 -80 0 
1 154 -101 0 
1 -103 -112 0 
1 -27 -32 0 
1 -95 -140 0 
1 -59 146 0 
1 136 -75 0 
1 -47 -98 0 
1 32 -70 0 
1 -86 55 0 
1 39 103 0 
1 141 -89 0 
1 155 57 0 
1 -39 -79 0 
1 64 63 0 
1 -79 15 0 
1 61 39 0 
1 23 102 0 
1 130 70 0 
1 -93 46 0 
1 -37 -133 0 
1 -42 -56 0 
1 85 84 0 
1 108 79 0 
1 53 85 0 
1 -55 59 0 
1 36 -35 0 
1 -36 39 0 
1 -83 -14 0 
1 -17 101 0 
1 -52 47 0 
1 96 -108 0 
1 -30 85 0 
1 128 -83 0 
1 54 60 0 
1 -15 31 0 
1 -144 32 0 
1 56 9 0 
1 -33 77 0 
1 27 -137 0 
1 115 77 0 
1 134 -119 0 
1 -134 104 0 
1 -150 23 0 
1 51 146 0 
1 -154 -27 0 
1 -152 -110 0 
1 13 -38 0 
1 -148 -110 0 
1 -119 28 0 
1 70 -130 0 
